35
2 1 9
3 0 8
3 2 4
4 1 4
4 3 10
5 0 4
6 5 10
7 3 6
7 4 10
7 5 9
8 0 6
8 2 3
8 3 6
8 4 2
8 5 5
8 6 10
9 0 6
9 1 8
9 3 4
9 4 4
9 6 10
9 7 2
9 8 7
10 1 9
10 4 5
10 6 10
10 7 8
11 0 3
11 2 10
11 3 8
11 4 1
11 6 7
11 8 1
11 9 7
12 0 3
12 1 8
12 4 7
12 5 9
12 6 2
12 7 3
12 8 7
12 9 2
12 10 7
12 11 1
13 0 10
13 1 2
13 2 7
13 3 9
13 4 8
13 8 1
13 9 2
13 11 5
14 1 4
14 2 9
14 4 4
14 9 6
14 10 4
14 13 6
15 1 5
15 5 4
15 11 5
15 12 8
16 0 9
16 1 7
16 3 9
16 7 6
16 8 9
16 9 5
16 10 6
16 12 7
16 14 5
16 15 7
17 1 9
17 3 3
17 5 6
17 7 10
17 8 10
17 11 10
17 12 7
17 13 5
17 15 10
18 0 10
18 2 7
18 3 6
18 4 9
18 5 1
18 6 6
18 10 1
18 11 10
18 12 8
18 15 6
18 16 5
19 2 2
19 3 2
19 5 4
19 6 1
19 7 7
19 8 8
19 9 3
19 10 2
19 12 7
19 14 2
19 15 2
19 16 1
19 18 8
20 0 10
20 4 7
20 6 5
20 8 8
20 9 9
20 10 6
20 12 9
20 13 6
20 15 1
20 16 6
20 19 7
21 1 5
21 2 3
21 4 5
21 6 5
21 18 1
22 0 10
22 1 3
22 4 10
22 5 3
22 9 8
22 10 9
22 14 5
22 18 6
22 20 6
23 4 4
23 5 3
23 6 8
23 8 4
23 14 1
23 16 9
23 19 4
24 1 5
24 5 10
24 6 3
24 7 8
24 13 9
24 17 10
24 20 6
24 21 10
25 1 10
25 2 8
25 5 3
25 8 4
25 9 2
25 10 4
25 11 8
25 12 9
25 13 4
25 14 8
25 15 6
25 16 3
25 21 5
25 22 10
25 23 8
26 1 9
26 2 3
26 3 6
26 4 8
26 5 7
26 6 6
26 7 1
26 11 7
26 13 4
26 14 1
26 15 8
26 17 3
26 18 6
26 21 3
26 23 5
26 25 5
27 0 9
27 3 6
27 7 4
27 8 7
27 9 7
27 10 10
27 11 7
27 14 3
27 16 3
27 17 9
27 18 6
27 20 9
27 22 10
28 0 2
28 3 3
28 5 6
28 6 8
28 8 10
28 9 10
28 10 1
28 12 6
28 13 1
28 14 5
28 17 8
28 23 3
28 24 5
28 26 6
28 27 7
29 3 5
29 4 5
29 5 4
29 6 2
29 7 4
29 11 4
29 20 7
29 27 8
29 28 9
30 1 4
30 2 6
30 4 8
30 5 7
30 7 9
30 9 4
30 10 4
30 11 9
30 12 5
30 14 5
30 15 8
30 16 10
30 18 3
30 20 2
30 21 6
30 23 10
30 24 8
30 25 5
30 26 8
30 27 3
30 28 1
30 29 3
31 1 9
31 2 6
31 3 6
31 4 6
31 5 1
31 6 8
31 7 4
31 10 8
31 13 4
31 17 4
31 18 7
31 20 7
31 21 9
31 24 10
31 25 5
31 28 9
32 0 6
32 1 4
32 2 7
32 4 4
32 6 5
32 8 1
32 9 7
32 14 4
32 15 10
32 18 7
32 19 8
32 20 7
32 22 8
32 25 9
32 26 10
32 27 6
32 28 1
32 29 6
32 30 3
33 1 9
33 4 4
33 5 3
33 6 7
33 7 5
33 8 8
33 10 7
33 11 1
33 12 3
33 13 5
33 19 2
33 20 9
33 21 7
33 22 10
33 23 7
33 27 10
33 28 9
33 30 6
34 2 3
34 4 8
34 7 6
34 8 5
34 10 6
34 12 2
34 13 5
34 15 10
34 16 9
34 17 3
34 18 3
34 19 10
34 22 4
34 23 1
34 29 4
34 30 7
34 31 1
34 32 3
34 33 6
